(set-logic ALL)
(declare-var i (BitVec 32))
(declare-var i! (BitVec 32))
(declare-var j (BitVec 32))
(declare-var j! (BitVec 32))
(declare-var x (BitVec 32))
(declare-var x! (BitVec 32))
(declare-var y (BitVec 32))
(declare-var y! (BitVec 32))
(declare-var i_0 (BitVec 32))
(declare-var i_0! (BitVec 32))
(declare-var i_1 (BitVec 32))
(declare-var i_1! (BitVec 32))
(declare-var i_2 (BitVec 32))
(declare-var i_2! (BitVec 32))
(declare-var i_3 (BitVec 32))
(declare-var i_3! (BitVec 32))
(declare-var j_0 (BitVec 32))
(declare-var j_0! (BitVec 32))
(declare-var j_1 (BitVec 32))
(declare-var j_1! (BitVec 32))
(declare-var j_2 (BitVec 32))
(declare-var j_2! (BitVec 32))
(declare-var j_3 (BitVec 32))
(declare-var j_3! (BitVec 32))
(declare-var x_0 (BitVec 32))
(declare-var x_0! (BitVec 32))
(declare-var y_0 (BitVec 32))
(declare-var y_0! (BitVec 32))
(declare-var y_1 (BitVec 32))
(declare-var y_1! (BitVec 32))
(synth-fun inv-f((parameter0 (BitVec 32))(parameter1 (BitVec 32))(parameter2 (BitVec 32))(parameter3 (BitVec 32))(parameter4 (BitVec 32))(parameter5 (BitVec 32))(parameter6 (BitVec 32))(parameter7 (BitVec 32))(parameter8 (BitVec 32))(parameter9 (BitVec 32))(parameter10 (BitVec 32))(parameter11 (BitVec 32))(parameter12 (BitVec 32))(parameter13 (BitVec 32))(parameter14 (BitVec 32)))Bool) 
(constraint (=> (and (and (and (and (and (= i i_1) (= j j_1) ) (= y y_1) ) (= j_1 (_ bv0 32)) ) (= i_1 (_ bv0 32)) ) (= y_1 (_ bv1 32)) )(inv-f i j x y i_0 i_1 i_2 i_3 j_0 j_1 j_2 j_3 x_0 y_0 y_1 )))
(constraint (=> (and (inv-f i j x y i_0 i_1 i_2 i_3 j_0 j_1 j_2 j_3 x_0 y_0 y_1 ) (or (and (and (and (and (and (and (and (= i_2 i) (= j_2 j) ) (= i_2 i!) ) (= j_2 j!) ) (= x x_0) ) (= x! x_0) ) (= j j!) ) (= y y!) ) (and (and (and (and (and (and (and (and (and (and (= i_2 i) (= j_2 j) ) (bvule i_2 x_0) ) (= i_3 (bvadd i_2 (_ bv1 32))) ) (= j_3 (bvadd j_2 y_1)) ) (= i_3 i!) ) (= j_3 j!) ) (= x x_0) ) (= x! x_0) ) (= y y_1) ) (= y! y_1) ) ) )(inv-f i! j! x! y! i_0! i_1! i_2! i_3! j_0! j_1! j_2! j_3! x_0! y_0! y_1! )))
(constraint (=> (inv-f i j x y i_0 i_1 i_2 i_3 j_0 j_1 j_2 j_3 x_0 y_0 y_1 )(or (not (and (and (and (= i i_2) (= j j_2) ) (= x x_0) ) (= y y_1) )) (not (and (and (not (bvule i_2 x_0)) (not (= i_2 j_2)) ) (not (not (= y_1 (_ bv1 32)))) )) )))
(check-synth)

